1 2 3 4 5 6 7 8 9
5 10 5 20 10 5 10 20 10
9 8 7 6 5 4 3 2 1
238609294 238609294 238609294 238609294 238609294 238609294 238609294 238609294 238609294
85263245 25965748 69854785 15874569 36985745 12365478 36985526 32147859 96587458
123 654 789 963 258 741 159 963 357
123 987 12 852 963 987 963 159 753
1000 200 1500 350 5000 1000 1000 2000 13000
60 20 1000 1000 60 20 10000 20 500
20 1000 50 2000 50 500 1500 20 3000
20 1000 50 2000 50 5000 1500 20 300
